p cnf 32 33
-1 27 0 
-2 5 28 0 
-3 20 29 0 
-4 29 0 
-2 5 29 0 
-5 2 29 0 
-6 16 29 0 
-7 29 0 
-8 21 24 30 0 
-2 5 -9 23 26 30 0 
-10 30 0 
-11 -8 21 24 31 0 
-12 19 31 0 
-13 31 0 
-9 23 26 32 0 
-5 2 32 0 
-9 23 26 30 0 
-14 31 0 
-15 -16 6 31 0 
-17 30 0 
-1 32 0 
-3 20 32 0 
-6 16 32 0 
-18 32 0 
-13 32 0 
-19 12 31 0 
-20 3 31 0 
-21 8 24 31 0 
-22 25 31 0 
-15 -23 9 26 31 0 
-20 3 -24 8 21 31 0 
-25 22 31 0 
-26 9 23 -10 31 0 
